n = 6;
k = 5;
l = 2;
forceAtLeastOne = false;
maxdiam = 5.0;
costs = [|  0.0 , 0.29 , 0.14 , 5.78 , 5.3 , 5.86 
|  0.29 , 0.0 , 0.16 , 6.07 , 5.6 , 6.15 
|  0.14 , 0.16 , 0.0 , 5.92 , 5.44 , 6.0 
|  5.78 , 6.07 , 5.92 , 0.0 , 1.05 , 0.41 
|  5.3 , 5.6 , 5.44 , 1.05 , 0.0 , 0.78 
|  5.86 , 6.15 , 6.0 , 0.41 , 0.78 , 0.0 
 |];